projected/problems_b25_r0_d7_m100_s666/_DIMACS/b25_d7_r0_s666_055.cnf
p cnf 191 283 25
c p show 1 2 3 4 5 6 7 8 9 10 11 12 13 14 15 16 17 18 19 20 21 22 23 24 25
-180 -25 0
-180 6 0
-181 25 16 0
-182 181 180 0
-183 22 -21 0
-184 8 16 0
-185 184 0
-185 183 0
-186 185 0
-186 182 0
-187 -20 0
-187 -4 0
-188 -20 3 0
-189 188 0
-189 187 0
-190 -9 0
-190 2 0
-191 -20 -19 0
-26 191 0
-26 190 0
-27 26 0
-27 189 0
-28 27 0
-28 186 0
-29 5 -24 0
-30 -19 -24 0
-31 30 0
-31 29 0
-32 11 0
-32 8 0
-33 -8 0
-33 -11 0
-34 33 32 0
-35 22 0
-35 -10 0
-36 35 0
-36 34 0
-37 36 0
-37 31 0
-38 7 0
-38 -25 0
-39 -12 -22 0
-40 39 38 0
-41 -7 0
-41 -19 0
-42 -3 5 0
-43 42 41 0
-44 43 40 0
-45 44 37 0
-46 45 28 0
-47 -4 23 0
-48 14 0
-48 1 0
-49 48 0
-49 47 0
-50 1 -3 0
-51 -17 -5 0
-52 51 50 0
-53 17 0
-53 5 0
-54 -1 0
-54 3 0
-55 54 53 0
-56 55 0
-56 52 0
-57 56 0
-57 49 0
-58 9 -14 0
-59 23 15 0
-60 59 0
-60 58 0
-61 -23 0
-61 -21 0
-62 -22 12 0
-63 62 0
-63 61 0
-64 63 0
-64 60 0
-65 64 57 0
-66 2 20 0
-67 14 -23 0
-68 23 -14 0
-69 68 0
-69 67 0
-70 69 66 0
-71 5 -19 0
-72 23 0
-72 -23 0
-73 72 71 0
-74 73 0
-74 70 0
-75 -3 0
-75 24 0
-76 -24 0
-76 9 0
-77 76 75 0
-78 6 0
-78 16 0
-79 24 0
-79 -5 0
-80 79 78 0
-81 80 77 0
-82 81 0
-82 74 0
-83 82 65 0
-84 83 46 0
-85 6 0
-85 -21 0
-86 25 14 0
-87 86 0
-87 85 0
-88 20 0
-88 21 0
-89 -20 0
-89 -8 0
-90 89 88 0
-91 90 87 0
-92 13 0
-92 9 0
-93 -9 0
-93 -13 0
-94 93 92 0
-95 -5 14 0
-96 95 0
-96 94 0
-97 -20 8 0
-98 -8 14 0
-99 98 97 0
-100 99 0
-100 96 0
-101 100 0
-101 91 0
-102 -10 24 0
-103 -13 -21 0
-104 103 0
-104 102 0
-105 13 -17 0
-106 7 -16 0
-107 106 105 0
-108 107 0
-108 104 0
-109 -2 0
-109 -10 0
-110 -10 -1 0
-111 110 109 0
-112 10 0
-112 1 0
-113 2 10 0
-114 113 112 0
-115 114 0
-115 111 0
-116 -22 0
-116 -24 0
-117 24 0
-117 22 0
-118 117 116 0
-119 -20 -8 0
-120 119 0
-120 118 0
-121 120 115 0
-122 121 0
-122 108 0
-123 122 101 0
-124 9 -12 0
-125 15 -11 0
-126 125 0
-126 124 0
-127 -21 -15 0
-128 -21 17 0
-129 128 127 0
-130 129 126 0
-131 12 -6 0
-132 -20 23 0
-133 132 131 0
-134 -4 10 0
-135 -11 0
-135 13 0
-136 135 134 0
-137 136 0
-137 133 0
-138 137 130 0
-139 -12 0
-139 6 0
-140 20 0
-140 -23 0
-141 140 0
-141 139 0
-142 4 0
-142 -10 0
-143 11 -13 0
-144 143 0
-144 142 0
-145 144 141 0
-146 -9 0
-146 12 0
-147 -15 0
-147 11 0
-148 147 146 0
-149 21 0
-149 15 0
-150 21 0
-150 -17 0
-151 150 0
-151 149 0
-152 151 0
-152 148 0
-153 152 145 0
-154 153 0
-154 138 0
-155 12 24 0
-156 -12 0
-156 9 0
-157 156 0
-157 155 0
-158 -18 0
-158 10 0
-159 18 0
-159 16 0
-160 159 0
-160 158 0
-161 160 0
-161 157 0
-162 18 -10 0
-163 -18 -16 0
-164 163 162 0
-165 -12 0
-165 -24 0
-166 12 -9 0
-167 166 165 0
-168 167 0
-168 164 0
-169 168 161 0
-170 14 0
-170 -5 0
-171 -17 0
-171 -12 0
-172 171 0
-172 170 0
-173 -2 0
-173 -23 0
-174 -22 0
-174 -17 0
-175 174 173 0
-176 175 0
-176 172 0
-177 176 169 0
-178 177 154 0
-179 178 123 0
179 0
84 0
-51 -53 0
-53 -51 0
-54 -50 0
-50 -54 0
-112 -110 0
-113 -109 0
-109 -113 0
-139 -131 0
-131 -139 0
-132 -140 0
-133 -141 0
-134 -142 0
-135 -143 0
-136 -144 0
-137 -145 0
-145 -137 0
-124 -146 0
-125 -147 0
-126 -148 0
-149 -127 0
-150 -128 0
-151 -129 0
-129 -151 0
-130 -152 0
-162 -158 0
-158 -162 0
-159 -163 0
-160 -164 0
-155 -165 0
-166 -156 0
-156 -166 0
-157 -167 0
-167 -157 0
