projected/problems_b25_r0_d7_m100_s666/b25_d7_r0_s666_055.smt2
(set-logic QF_UF)
(declare-fun A0 () Bool)
(declare-fun A1 () Bool)
(declare-fun A2 () Bool)
(declare-fun A3 () Bool)
(declare-fun A4 () Bool)
(declare-fun A5 () Bool)
(declare-fun A6 () Bool)
(declare-fun A7 () Bool)
(declare-fun A8 () Bool)
(declare-fun A9 () Bool)
(declare-fun A10 () Bool)
(declare-fun A11 () Bool)
(declare-fun A12 () Bool)
(declare-fun A13 () Bool)
(declare-fun A14 () Bool)
(declare-fun A15 () Bool)
(declare-fun A16 () Bool)
(declare-fun A17 () Bool)
(declare-fun A18 () Bool)
(declare-fun A19 () Bool)
(declare-fun A20 () Bool)
(declare-fun A21 () Bool)
(declare-fun A22 () Bool)
(declare-fun A23 () Bool)
(declare-fun A24 () Bool)
(assert (let ((.def_0 (not A24))) (let ((.def_1 (and .def_0 A5))) (let ((.def_2 (or A24 A15))) (let ((.def_3 (or .def_2 .def_1))) (let ((.def_4 (not .def_3))) (let ((.def_5 (not A20))) (let ((.def_6 (or A21 .def_5))) (let ((.def_7 (not .def_6))) (let ((.def_8 (or A7 A15))) (let ((.def_9 (not .def_8))) (let ((.def_10 (or .def_9 .def_7))) (let ((.def_11 (or .def_10 .def_4))) (let ((.def_12 (not A3))) (let ((.def_13 (not A19))) (let ((.def_14 (and .def_13 .def_12))) (let ((.def_15 (or .def_13 A2))) (let ((.def_16 (and .def_15 .def_14))) (let ((.def_17 (not A1))) (let ((.def_18 (or A8 .def_17))) (let ((.def_19 (not .def_18))) (let ((.def_20 (and A19 A18))) (let ((.def_21 (not .def_20))) (let ((.def_22 (and .def_21 .def_19))) (let ((.def_23 (and .def_22 .def_16))) (let ((.def_24 (not .def_23))) (let ((.def_25 (or .def_24 .def_11))) (let ((.def_26 (not A23))) (let ((.def_27 (or A4 .def_26))) (let ((.def_28 (and A18 A23))) (let ((.def_29 (not .def_28))) (let ((.def_30 (and .def_29 .def_27))) (let ((.def_31 (not A7))) (let ((.def_32 (= .def_31 A10))) (let ((.def_33 (not .def_32))) (let ((.def_34 (not A21))) (let ((.def_35 (or .def_34 A9))) (let ((.def_36 (not .def_35))) (let ((.def_37 (and .def_36 .def_33))) (let ((.def_38 (and .def_37 .def_30))) (let ((.def_39 (not A6))) (let ((.def_40 (or .def_39 A24))) (let ((.def_41 (not .def_40))) (let ((.def_42 (and A11 A21))) (let ((.def_43 (not .def_42))) (let ((.def_44 (or .def_43 .def_41))) (let ((.def_45 (not .def_44))) (let ((.def_46 (not A18))) (let ((.def_47 (and .def_39 .def_46))) (let ((.def_48 (not A4))) (let ((.def_49 (and A2 .def_48))) (let ((.def_50 (not .def_49))) (let ((.def_51 (or .def_50 .def_47))) (let ((.def_52 (not .def_51))) (let ((.def_53 (and .def_52 .def_45))) (let ((.def_54 (not .def_53))) (let ((.def_55 (or .def_54 .def_38))) (let ((.def_56 (not .def_55))) (let ((.def_57 (and .def_56 .def_25))) (let ((.def_58 (not .def_57))) (let ((.def_59 (or .def_12 A22))) (let ((.def_60 (and A13 A0))) (let ((.def_61 (and .def_60 .def_59))) (let ((.def_62 (not A16))) (let ((.def_63 (or .def_62 .def_48))) (let ((.def_64 (not .def_63))) (let ((.def_65 (not A0))) (let ((.def_66 (and .def_65 A2))) (let ((.def_67 (not .def_66))) (let ((.def_68 (= .def_67 .def_64))) (let ((.def_69 (and .def_68 .def_61))) (let ((.def_70 (not .def_69))) (let ((.def_71 (not A13))) (let ((.def_72 (or A8 .def_71))) (let ((.def_73 (not A14))) (let ((.def_74 (not A22))) (let ((.def_75 (and .def_74 .def_73))) (let ((.def_76 (not .def_75))) (let ((.def_77 (and .def_76 .def_72))) (let ((.def_78 (or A22 A20))) (let ((.def_79 (not .def_78))) (let ((.def_80 (or .def_34 A11))) (let ((.def_81 (and .def_80 .def_79))) (let ((.def_82 (and .def_81 .def_77))) (let ((.def_83 (not .def_82))) (let ((.def_84 (and .def_83 .def_70))) (let ((.def_85 (or A1 A19))) (let ((.def_86 (= .def_74 .def_71))) (let ((.def_87 (or .def_86 .def_85))) (let ((.def_88 (and .def_48 A18))) (let ((.def_89 (not .def_88))) (let ((.def_90 (or .def_74 A22))) (let ((.def_91 (not .def_90))) (let ((.def_92 (or .def_91 .def_89))) (let ((.def_93 (and .def_92 .def_87))) (let ((.def_94 (not .def_93))) (let ((.def_95 (or A2 .def_26))) (let ((.def_96 (not A8))) (let ((.def_97 (or A23 .def_96))) (let ((.def_98 (and .def_97 .def_95))) (let ((.def_99 (not .def_98))) (let ((.def_100 (and A5 A15))) (let ((.def_101 (not .def_100))) (let ((.def_102 (or .def_26 A4))) (let ((.def_103 (and .def_102 .def_101))) (let ((.def_104 (not .def_103))) (let ((.def_105 (or .def_104 .def_99))) (let ((.def_106 (not .def_105))) (let ((.def_107 (or .def_106 .def_94))) (let ((.def_108 (and .def_107 .def_84))) (let ((.def_109 (not .def_108))) (let ((.def_110 (or .def_109 .def_58))) (let ((.def_111 (not .def_110))) (let ((.def_112 (and A5 .def_5))) (let ((.def_113 (or A24 A13))) (let ((.def_114 (and .def_113 .def_112))) (let ((.def_115 (not .def_114))) (let ((.def_116 (or .def_13 .def_5))) (let ((.def_117 (or A19 A7))) (let ((.def_118 (and .def_117 .def_116))) (let ((.def_119 (and .def_118 .def_115))) (let ((.def_120 (= .def_96 A12))) (let ((.def_121 (and A4 .def_71))) (let ((.def_122 (or .def_121 .def_120))) (let ((.def_123 (or .def_13 A7))) (let ((.def_124 (not .def_123))) (let ((.def_125 (and A7 .def_71))) (let ((.def_126 (and .def_125 .def_124))) (let ((.def_127 (or .def_126 .def_122))) (let ((.def_128 (or .def_127 .def_119))) (let ((.def_129 (not .def_128))) (let ((.def_130 (and A9 .def_26))) (let ((.def_131 (and A12 A20))) (let ((.def_132 (or .def_131 .def_130))) (let ((.def_133 (not A12))) (let ((.def_134 (and .def_133 A16))) (let ((.def_135 (not A15))) (let ((.def_136 (or A6 .def_135))) (let ((.def_137 (not .def_136))) (let ((.def_138 (and .def_137 .def_134))) (let ((.def_139 (or .def_138 .def_132))) (let ((.def_140 (and A9 A0))) (let ((.def_141 (or A1 A9))) (let ((.def_142 (not .def_141))) (let ((.def_143 (= .def_142 .def_140))) (let ((.def_144 (not .def_143))) (let ((.def_145 (= A23 .def_34))) (let ((.def_146 (or .def_13 .def_31))) (let ((.def_147 (not .def_146))) (let ((.def_148 (or .def_147 .def_145))) (let ((.def_149 (and .def_148 .def_144))) (let ((.def_150 (or .def_149 .def_139))) (let ((.def_151 (not .def_150))) (let ((.def_152 (or .def_151 .def_129))) (let ((.def_153 (not A11))) (let ((.def_154 (and .def_153 A5))) (let ((.def_155 (not .def_154))) (let ((.def_156 (or .def_13 A22))) (let ((.def_157 (or .def_156 .def_155))) (let ((.def_158 (or .def_12 A9))) (let ((.def_159 (not A10))) (let ((.def_160 (and .def_159 A12))) (let ((.def_161 (or .def_160 .def_158))) (let ((.def_162 (and .def_161 .def_157))) (let ((.def_163 (not .def_162))) (let ((.def_164 (or A8 .def_153))) (let ((.def_165 (or A14 .def_159))) (let ((.def_166 (and .def_165 .def_164))) (let ((.def_167 (and A20 A14))) (let ((.def_168 (and A20 .def_62))) (let ((.def_169 (and .def_168 .def_167))) (let ((.def_170 (not .def_169))) (let ((.def_171 (or .def_170 .def_166))) (let ((.def_172 (= .def_171 .def_163))) (let ((.def_173 (not .def_172))) (let ((.def_174 (not A9))) (let ((.def_175 (or A17 .def_174))) (let ((.def_176 (not .def_175))) (let ((.def_177 (and A17 A15))) (let ((.def_178 (and .def_177 .def_176))) (let ((.def_179 (or A11 A23))) (let ((.def_180 (or A11 .def_96))) (let ((.def_181 (not .def_180))) (let ((.def_182 (and .def_181 .def_179))) (let ((.def_183 (not .def_182))) (let ((.def_184 (= .def_183 .def_178))) (let ((.def_185 (and A13 .def_48))) (let ((.def_186 (and .def_62 .def_153))) (let ((.def_187 (and .def_186 .def_185))) (let ((.def_188 (not .def_187))) (let ((.def_189 (or A1 A22))) (let ((.def_190 (and .def_34 .def_62))) (let ((.def_191 (not .def_190))) (let ((.def_192 (and .def_191 .def_189))) (let ((.def_193 (or .def_192 .def_188))) (let ((.def_194 (and .def_193 .def_184))) (let ((.def_195 (and .def_194 .def_173))) (let ((.def_196 (not .def_195))) (let ((.def_197 (or .def_196 .def_152))) (let ((.def_198 (not .def_197))) (let ((.def_199 (or .def_198 .def_111))) (let ((.def_200 (not .def_199))) .def_200))))))))))))))))))))))))))))))))))))))))))))))))))))))))))))))))))))))))))))))))))))))))))))))))))))))))))))))))))))))))))))))))))))))))))))))))))))))))))))))))))))))))))))))))))))))))))))))))))))))))))
(check-sat)
